db = 5;

nameData = ["Carmen", "Diana", "Jane", "Lidia", "Melissa"];
dressData = ["black", "blue", "purple", "red", "white"];
cocktailData = ["cosmopolitan", "daiquiri", "manhattan", "margarita", "martini"];
necklaceData = ["emerald", "moonstone", "pearl", "sapphire", "turquoise"];
ageData = ["40", "45", "50", "55", "60"];
donationData = ["$10,000", "$20,000", "$30,000", "$40,000", "$50,000"];